# Solution for model GEN
# Objective value = 1.1231336271799999e+05
XON.1.01 0
XON.1.02 0
XON.1.03 0
XON.1.04 0
XON.1.05 0
XON.1.06 0
XON.1.07 0
XON.1.08 0
XON.1.09 0
XON.1.10 0
XON.1.11 0
XON.1.12 0
XON.1.13 0
XON.1.14 0
XON.1.15 0
XON.1.16 1
XON.1.17 0
XON.1.18 0
XON.1.19 0
XON.1.20 0
XON.1.21 0
XON.1.22 0
XON.1.23 0
XON.1.24 0
XON.2.01 0
XON.2.02 0
XON.2.03 0
XON.2.04 0
XON.2.05 0
XON.2.06 0
XON.2.07 0
XON.2.08 0
XON.2.09 0
XON.2.10 0
XON.2.11 1
XON.2.12 1
XON.2.13 1
XON.2.14 1
XON.2.15 1
XON.2.16 1
XON.2.17 1
XON.2.18 1
XON.2.19 1
XON.2.20 1
XON.2.21 1
XON.2.22 1
XON.2.23 0
XON.2.24 0
XON.3.01 0
XON.3.02 0
XON.3.03 0
XON.3.04 0
XON.3.05 0
XON.3.06 0
XON.3.07 0
XON.3.08 0
XON.3.09 0
XON.3.10 1
XON.3.11 1
XON.3.12 1
XON.3.13 1
XON.3.14 1
XON.3.15 1
XON.3.16 1
XON.3.17 1
XON.3.18 1
XON.3.19 1
XON.3.20 1
XON.3.21 1
XON.3.22 1
XON.3.23 0
XON.3.24 0
XON.4.01 0
XON.4.02 0
XON.4.03 0
XON.4.04 0
XON.4.05 0
XON.4.06 0
XON.4.07 0
XON.4.08 0
XON.4.09 0
XON.4.10 0
XON.4.11 0
XON.4.12 0
XON.4.13 1
XON.4.14 1
XON.4.15 1
XON.4.16 1
XON.4.17 1
XON.4.18 1
XON.4.19 1
XON.4.20 1
XON.4.21 1
XON.4.22 1
XON.4.23 0
XON.4.24 0
XON.5.01 0
XON.5.02 0
XON.5.03 0
XON.5.04 0
XON.5.05 0
XON.5.06 0
XON.5.07 0
XON.5.08 0
XON.5.09 0
XON.5.10 0
XON.5.11 0
XON.5.12 1
XON.5.13 1
XON.5.14 1
XON.5.15 1
XON.5.16 1
XON.5.17 1
XON.5.18 1
XON.5.19 1
XON.5.20 0
XON.5.21 0
XON.5.22 0
XON.5.23 0
XON.5.24 0
XON.6.01 1
XON.6.02 1
XON.6.03 1
XON.6.04 1
XON.6.05 1
XON.6.06 1
XON.6.07 1
XON.6.08 1
XON.6.09 1
XON.6.10 1
XON.6.11 1
XON.6.12 1
XON.6.13 1
XON.6.14 1
XON.6.15 1
XON.6.16 1
XON.6.17 1
XON.6.18 1
XON.6.19 1
XON.6.20 1
XON.6.21 1
XON.6.22 1
XON.6.23 1
XON.6.24 1
ZPR.1.01 0
ZPR.1.02 0
ZPR.1.03 0
ZPR.1.04 0
ZPR.1.05 0
ZPR.1.06 0
ZPR.1.07 0
ZPR.1.08 0
ZPR.1.09 0
ZPR.1.10 0
ZPR.1.11 0
ZPR.1.12 0
ZPR.1.13 0
ZPR.1.14 0
ZPR.1.15 0
ZPR.1.16 15
ZPR.1.17 0
ZPR.1.18 0
ZPR.1.19 0
ZPR.1.20 0
ZPR.1.21 0
ZPR.1.22 0
ZPR.1.23 0
ZPR.1.24 0
ZPR.2.01 0
ZPR.2.02 0
ZPR.2.03 0
ZPR.2.04 0
ZPR.2.05 0
ZPR.2.06 0
ZPR.2.07 0
ZPR.2.08 0
ZPR.2.09 0
ZPR.2.10 0
ZPR.2.11 15
ZPR.2.12 16
ZPR.2.13 15
ZPR.2.14 15
ZPR.2.15 22
ZPR.2.16 17
ZPR.2.17 25
ZPR.2.18 15
ZPR.2.19 15
ZPR.2.20 15
ZPR.2.21 15
ZPR.2.22 15
ZPR.2.23 0
ZPR.2.24 0
ZPR.3.01 0
ZPR.3.02 0
ZPR.3.03 0
ZPR.3.04 0
ZPR.3.05 0
ZPR.3.06 0
ZPR.3.07 0
ZPR.3.08 0
ZPR.3.09 0
ZPR.3.10 15
ZPR.3.11 15
ZPR.3.12 15
ZPR.3.13 15
ZPR.3.14 15
ZPR.3.15 15
ZPR.3.16 15
ZPR.3.17 15
ZPR.3.18 15
ZPR.3.19 15
ZPR.3.20 15
ZPR.3.21 15
ZPR.3.22 15
ZPR.3.23 0
ZPR.3.24 0
ZPR.4.01 0
ZPR.4.02 0
ZPR.4.03 0
ZPR.4.04 0
ZPR.4.05 0
ZPR.4.06 0
ZPR.4.07 0
ZPR.4.08 0
ZPR.4.09 0
ZPR.4.10 0
ZPR.4.11 0
ZPR.4.12 0
ZPR.4.13 26
ZPR.4.14 42
ZPR.4.15 42
ZPR.4.16 42
ZPR.4.17 46
ZPR.4.18 39
ZPR.4.19 31
ZPR.4.20 35
ZPR.4.21 21
ZPR.4.22 20
ZPR.4.23 0
ZPR.4.24 0
ZPR.5.01 0
ZPR.5.02 0
ZPR.5.03 0
ZPR.5.04 0
ZPR.5.05 0
ZPR.5.06 0
ZPR.5.07 0
ZPR.5.08 0
ZPR.5.09 0
ZPR.5.10 0
ZPR.5.11 0
ZPR.5.12 42
ZPR.5.13 31
ZPR.5.14 40
ZPR.5.15 42
ZPR.5.16 42
ZPR.5.17 42
ZPR.5.18 42
ZPR.5.19 39
ZPR.5.20 0
ZPR.5.21 0
ZPR.5.22 0
ZPR.5.23 0
ZPR.5.24 0
ZPR.6.01 429
ZPR.6.02 377
ZPR.6.03 353
ZPR.6.04 338
ZPR.6.05 327
ZPR.6.06 343
ZPR.6.07 399
ZPR.6.08 454
ZPR.6.09 562
ZPR.6.10 625
ZPR.6.11 663
ZPR.6.12 670
ZPR.6.13 670
ZPR.6.14 670
ZPR.6.15 670
ZPR.6.16 670
ZPR.6.17 670
ZPR.6.18 670
ZPR.6.19 670
ZPR.6.20 670
ZPR.6.21 670
ZPR.6.22 664
ZPR.6.23 564
ZPR.6.24 510
YSW.1.01 0
YSW.1.02 0
YSW.1.03 0
YSW.1.04 0
YSW.1.05 0
YSW.1.06 0
YSW.1.07 0
YSW.1.08 0
YSW.1.09 0
YSW.1.10 0
YSW.1.11 0
YSW.1.12 0
YSW.1.13 0
YSW.1.14 0
YSW.1.15 0
YSW.1.16 1
YSW.1.17 0
YSW.1.18 0
YSW.1.19 0
YSW.1.20 0
YSW.1.21 0
YSW.1.22 0
YSW.1.23 0
YSW.1.24 0
YSW.2.01 0
YSW.2.02 0
YSW.2.03 0
YSW.2.04 0
YSW.2.05 0
YSW.2.06 0
YSW.2.07 0
YSW.2.08 0
YSW.2.09 0
YSW.2.10 0
YSW.2.11 1
YSW.2.12 0
YSW.2.13 0
YSW.2.14 0
YSW.2.15 0
YSW.2.16 0
YSW.2.17 0
YSW.2.18 0
YSW.2.19 0
YSW.2.20 0
YSW.2.21 0
YSW.2.22 0
YSW.2.23 0
YSW.2.24 0
YSW.3.01 0
YSW.3.02 0
YSW.3.03 0
YSW.3.04 0
YSW.3.05 0
YSW.3.06 0
YSW.3.07 0
YSW.3.08 0
YSW.3.09 0
YSW.3.10 1
YSW.3.11 0
YSW.3.12 0
YSW.3.13 0
YSW.3.14 0
YSW.3.15 0
YSW.3.16 0
YSW.3.17 0
YSW.3.18 0
YSW.3.19 0
YSW.3.20 0
YSW.3.21 0
YSW.3.22 0
YSW.3.23 0
YSW.3.24 0
YSW.4.01 0
YSW.4.02 0
YSW.4.03 0
YSW.4.04 0
YSW.4.05 0
YSW.4.06 0
YSW.4.07 0
YSW.4.08 0
YSW.4.09 0
YSW.4.10 0
YSW.4.11 0
YSW.4.12 0
YSW.4.13 1
YSW.4.14 0
YSW.4.15 0
YSW.4.16 0
YSW.4.17 0
YSW.4.18 0
YSW.4.19 0
YSW.4.20 0
YSW.4.21 0
YSW.4.22 0
YSW.4.23 0
YSW.4.24 0
YSW.5.01 0
YSW.5.02 0
YSW.5.03 0
YSW.5.04 0
YSW.5.05 0
YSW.5.06 0
YSW.5.07 0
YSW.5.08 0
YSW.5.09 0
YSW.5.10 0
YSW.5.11 0
YSW.5.12 1
YSW.5.13 0
YSW.5.14 0
YSW.5.15 0
YSW.5.16 0
YSW.5.17 0
YSW.5.18 0
YSW.5.19 0
YSW.5.20 0
YSW.5.21 0
YSW.5.22 0
YSW.5.23 0
YSW.5.24 0
YSW.6.01 1
YSW.6.02 0
YSW.6.03 0
YSW.6.04 0
YSW.6.05 0
YSW.6.06 0
YSW.6.07 0
YSW.6.08 0
YSW.6.09 0
YSW.6.10 0
YSW.6.11 0
YSW.6.12 0
YSW.6.13 0
YSW.6.14 0
YSW.6.15 0
YSW.6.16 0
YSW.6.17 0
YSW.6.18 0
YSW.6.19 0
YSW.6.20 0
YSW.6.21 0
YSW.6.22 0
YSW.6.23 0
YSW.6.24 0
DELTA.1. 23
DELTA.2. 12
DELTA.3. 11
DELTA.4. 14
DELTA.5. 16
DELTA.6. 0
ZS.1.011 0
ZS.1.012 0
ZS.1.013 0
ZS.1.021 0
ZS.1.022 0
ZS.1.023 0
ZS.1.031 0
ZS.1.032 0
ZS.1.033 0
ZS.1.041 0
ZS.1.042 0
ZS.1.043 0
ZS.1.051 0
ZS.1.052 0
ZS.1.053 0
ZS.1.061 0
ZS.1.062 0
ZS.1.063 0
ZS.1.071 0
ZS.1.072 0
ZS.1.073 0
ZS.1.081 0
ZS.1.082 0
ZS.1.083 0
ZS.1.091 0
ZS.1.092 0
ZS.1.093 0
ZS.1.101 0
ZS.1.102 0
ZS.1.103 0
ZS.1.111 0
ZS.1.112 0
ZS.1.113 0
ZS.1.121 0
ZS.1.122 0
ZS.1.123 0
ZS.1.131 0
ZS.1.132 0
ZS.1.133 0
ZS.1.141 0
ZS.1.142 0
ZS.1.143 0
ZS.1.151 0
ZS.1.152 0
ZS.1.153 0
ZS.1.161 0
ZS.1.162 0
ZS.1.163 0
ZS.1.171 0
ZS.1.172 0
ZS.1.173 0
ZS.1.181 0
ZS.1.182 0
ZS.1.183 0
ZS.1.191 0
ZS.1.192 0
ZS.1.193 0
ZS.1.201 0
ZS.1.202 0
ZS.1.203 0
ZS.1.211 0
ZS.1.212 0
ZS.1.213 0
ZS.1.221 0
ZS.1.222 0
ZS.1.223 0
ZS.1.231 0
ZS.1.232 0
ZS.1.233 0
ZS.1.241 0
ZS.1.242 0
ZS.1.243 0
ZS.2.011 0
ZS.2.012 0
ZS.2.013 0
ZS.2.021 0
ZS.2.022 0
ZS.2.023 0
ZS.2.031 0
ZS.2.032 0
ZS.2.033 0
ZS.2.041 0
ZS.2.042 0
ZS.2.043 0
ZS.2.051 0
ZS.2.052 0
ZS.2.053 0
ZS.2.061 0
ZS.2.062 0
ZS.2.063 0
ZS.2.071 0
ZS.2.072 0
ZS.2.073 0
ZS.2.081 0
ZS.2.082 0
ZS.2.083 0
ZS.2.091 0
ZS.2.092 0
ZS.2.093 0
ZS.2.101 0
ZS.2.102 0
ZS.2.103 0
ZS.2.111 0
ZS.2.112 0
ZS.2.113 0
ZS.2.121 1
ZS.2.122 0
ZS.2.123 0
ZS.2.131 0
ZS.2.132 0
ZS.2.133 0
ZS.2.141 0
ZS.2.142 0
ZS.2.143 0
ZS.2.151 7
ZS.2.152 0
ZS.2.153 0
ZS.2.161 2
ZS.2.162 0
ZS.2.163 0
ZS.2.171 10
ZS.2.172 0
ZS.2.173 0
ZS.2.181 0
ZS.2.182 0
ZS.2.183 0
ZS.2.191 0
ZS.2.192 0
ZS.2.193 0
ZS.2.201 0
ZS.2.202 0
ZS.2.203 0
ZS.2.211 0
ZS.2.212 0
ZS.2.213 0
ZS.2.221 0
ZS.2.222 0
ZS.2.223 0
ZS.2.231 0
ZS.2.232 0
ZS.2.233 0
ZS.2.241 0
ZS.2.242 0
ZS.2.243 0
ZS.3.011 0
ZS.3.012 0
ZS.3.013 0
ZS.3.021 0
ZS.3.022 0
ZS.3.023 0
ZS.3.031 0
ZS.3.032 0
ZS.3.033 0
ZS.3.041 0
ZS.3.042 0
ZS.3.043 0
ZS.3.051 0
ZS.3.052 0
ZS.3.053 0
ZS.3.061 0
ZS.3.062 0
ZS.3.063 0
ZS.3.071 0
ZS.3.072 0
ZS.3.073 0
ZS.3.081 0
ZS.3.082 0
ZS.3.083 0
ZS.3.091 0
ZS.3.092 0
ZS.3.093 0
ZS.3.101 0
ZS.3.102 0
ZS.3.103 0
ZS.3.111 0
ZS.3.112 0
ZS.3.113 0
ZS.3.121 0
ZS.3.122 0
ZS.3.123 0
ZS.3.131 0
ZS.3.132 0
ZS.3.133 0
ZS.3.141 0
ZS.3.142 0
ZS.3.143 0
ZS.3.151 0
ZS.3.152 0
ZS.3.153 0
ZS.3.161 0
ZS.3.162 0
ZS.3.163 0
ZS.3.171 0
ZS.3.172 0
ZS.3.173 0
ZS.3.181 0
ZS.3.182 0
ZS.3.183 0
ZS.3.191 0
ZS.3.192 0
ZS.3.193 0
ZS.3.201 0
ZS.3.202 0
ZS.3.203 0
ZS.3.211 0
ZS.3.212 0
ZS.3.213 0
ZS.3.221 0
ZS.3.222 0
ZS.3.223 0
ZS.3.231 0
ZS.3.232 0
ZS.3.233 0
ZS.3.241 0
ZS.3.242 0
ZS.3.243 0
ZS.4.011 0
ZS.4.012 0
ZS.4.013 0
ZS.4.021 0
ZS.4.022 0
ZS.4.023 0
ZS.4.031 0
ZS.4.032 0
ZS.4.033 0
ZS.4.041 0
ZS.4.042 0
ZS.4.043 0
ZS.4.051 0
ZS.4.052 0
ZS.4.053 0
ZS.4.061 0
ZS.4.062 0
ZS.4.063 0
ZS.4.071 0
ZS.4.072 0
ZS.4.073 0
ZS.4.081 0
ZS.4.082 0
ZS.4.083 0
ZS.4.091 0
ZS.4.092 0
ZS.4.093 0
ZS.4.101 0
ZS.4.102 0
ZS.4.103 0
ZS.4.111 0
ZS.4.112 0
ZS.4.113 0
ZS.4.121 0
ZS.4.122 0
ZS.4.123 0
ZS.4.131 6
ZS.4.132 0
ZS.4.133 0
ZS.4.141 11
ZS.4.142 0
ZS.4.143 11
ZS.4.151 11
ZS.4.152 0
ZS.4.153 11
ZS.4.161 11
ZS.4.162 0
ZS.4.163 11
ZS.4.171 11
ZS.4.172 4
ZS.4.173 11
ZS.4.181 11
ZS.4.182 0
ZS.4.183 8
ZS.4.191 11
ZS.4.192 0
ZS.4.193 0
ZS.4.201 11
ZS.4.202 0
ZS.4.203 4
ZS.4.211 1
ZS.4.212 0
ZS.4.213 0
ZS.4.221 0
ZS.4.222 0
ZS.4.223 0
ZS.4.231 0
ZS.4.232 0
ZS.4.233 0
ZS.4.241 0
ZS.4.242 0
ZS.4.243 0
ZS.5.011 0
ZS.5.012 0
ZS.5.013 0
ZS.5.021 0
ZS.5.022 0
ZS.5.023 0
ZS.5.031 0
ZS.5.032 0
ZS.5.033 0
ZS.5.041 0
ZS.5.042 0
ZS.5.043 0
ZS.5.051 0
ZS.5.052 0
ZS.5.053 0
ZS.5.061 0
ZS.5.062 0
ZS.5.063 0
ZS.5.071 0
ZS.5.072 0
ZS.5.073 0
ZS.5.081 0
ZS.5.082 0
ZS.5.083 0
ZS.5.091 0
ZS.5.092 0
ZS.5.093 0
ZS.5.101 0
ZS.5.102 0
ZS.5.103 0
ZS.5.111 0
ZS.5.112 0
ZS.5.113 0
ZS.5.121 11
ZS.5.122 0
ZS.5.123 11
ZS.5.131 11
ZS.5.132 0
ZS.5.133 0
ZS.5.141 11
ZS.5.142 0
ZS.5.143 9
ZS.5.151 11
ZS.5.152 0
ZS.5.153 11
ZS.5.161 11
ZS.5.162 0
ZS.5.163 11
ZS.5.171 11
ZS.5.172 0
ZS.5.173 11
ZS.5.181 11
ZS.5.182 0
ZS.5.183 11
ZS.5.191 11
ZS.5.192 0
ZS.5.193 8
ZS.5.201 0
ZS.5.202 0
ZS.5.203 0
ZS.5.211 0
ZS.5.212 0
ZS.5.213 0
ZS.5.221 0
ZS.5.222 0
ZS.5.223 0
ZS.5.231 0
ZS.5.232 0
ZS.5.233 0
ZS.5.241 0
ZS.5.242 0
ZS.5.243 0
ZS.6.011 140
ZS.6.012 0
ZS.6.013 39
ZS.6.021 127
ZS.6.022 0
ZS.6.023 0
ZS.6.031 103
ZS.6.032 0
ZS.6.033 0
ZS.6.041 88
ZS.6.042 0
ZS.6.043 0
ZS.6.051 77
ZS.6.052 0
ZS.6.053 0
ZS.6.061 93
ZS.6.062 0
ZS.6.063 0
ZS.6.071 140
ZS.6.072 0
ZS.6.073 9
ZS.6.081 140
ZS.6.082 0
ZS.6.083 64
ZS.6.091 140
ZS.6.092 32
ZS.6.093 140
ZS.6.101 140
ZS.6.102 95
ZS.6.103 140
ZS.6.111 140
ZS.6.112 133
ZS.6.113 140
ZS.6.121 140
ZS.6.122 140
ZS.6.123 140
ZS.6.131 140
ZS.6.132 140
ZS.6.133 140
ZS.6.141 140
ZS.6.142 140
ZS.6.143 140
ZS.6.151 140
ZS.6.152 140
ZS.6.153 140
ZS.6.161 140
ZS.6.162 140
ZS.6.163 140
ZS.6.171 140
ZS.6.172 140
ZS.6.173 140
ZS.6.181 140
ZS.6.182 140
ZS.6.183 140
ZS.6.191 140
ZS.6.192 140
ZS.6.193 140
ZS.6.201 140
ZS.6.202 140
ZS.6.203 140
ZS.6.211 140
ZS.6.212 140
ZS.6.213 140
ZS.6.221 140
ZS.6.222 134
ZS.6.223 140
ZS.6.231 140
ZS.6.232 34
ZS.6.233 140
ZS.6.241 140
ZS.6.242 0
ZS.6.243 120
